multiobj/solutions/Ter.6.3.1.00.1.out
1 3
0 5 4 2 3 1 
6081406 6081406 6081406 
